cute/catenary.ampl.col
x[1]
x[2]
x[3]
x[4]
x[5]
x[6]
x[7]
x[8]
x[9]
x[10]
x[11]
x[12]
x[13]
x[14]
x[15]
x[16]
x[17]
x[18]
x[19]
x[20]
x[21]
x[22]
x[23]
x[24]
x[25]
x[26]
x[27]
x[28]
x[29]
x[30]
x[31]
x[32]
x[33]
x[34]
x[35]
x[36]
x[37]
x[38]
x[39]
x[40]
x[41]
x[42]
x[43]
x[44]
x[45]
x[46]
x[47]
x[48]
x[49]
x[50]
x[51]
x[52]
x[53]
x[54]
x[55]
x[56]
x[57]
x[58]
x[59]
x[60]
x[61]
x[62]
x[63]
x[64]
x[65]
x[66]
x[67]
x[68]
x[69]
x[70]
x[71]
x[72]
x[73]
x[74]
x[75]
x[76]
x[77]
x[78]
x[79]
x[80]
x[81]
x[82]
x[83]
x[84]
x[85]
x[86]
x[87]
x[88]
x[89]
x[90]
x[91]
x[92]
x[93]
x[94]
x[95]
x[96]
x[97]
x[98]
x[99]
x[100]
x[101]
x[102]
x[103]
x[104]
x[105]
x[106]
x[107]
x[108]
x[109]
x[110]
x[111]
x[112]
x[113]
x[114]
x[115]
x[116]
x[117]
x[118]
x[119]
x[120]
x[121]
x[122]
x[123]
x[124]
x[125]
x[126]
x[127]
x[128]
x[129]
x[130]
x[131]
x[132]
x[133]
x[134]
x[135]
x[136]
x[137]
x[138]
x[139]
x[140]
x[141]
x[142]
x[143]
x[144]
x[145]
x[146]
x[147]
x[148]
x[149]
x[150]
x[151]
x[152]
x[153]
x[154]
x[155]
x[156]
x[157]
x[158]
x[159]
x[160]
x[161]
x[162]
x[163]
x[164]
x[165]
y[1]
y[2]
y[3]
y[4]
y[5]
y[6]
y[7]
y[8]
y[9]
y[10]
y[11]
y[12]
y[13]
y[14]
y[15]
y[16]
y[17]
y[18]
y[19]
y[20]
y[21]
y[22]
y[23]
y[24]
y[25]
y[26]
y[27]
y[28]
y[29]
y[30]
y[31]
y[32]
y[33]
y[34]
y[35]
y[36]
y[37]
y[38]
y[39]
y[40]
y[41]
y[42]
y[43]
y[44]
y[45]
y[46]
y[47]
y[48]
y[49]
y[50]
y[51]
y[52]
y[53]
y[54]
y[55]
y[56]
y[57]
y[58]
y[59]
y[60]
y[61]
y[62]
y[63]
y[64]
y[65]
y[66]
y[67]
y[68]
y[69]
y[70]
y[71]
y[72]
y[73]
y[74]
y[75]
y[76]
y[77]
y[78]
y[79]
y[80]
y[81]
y[82]
y[83]
y[84]
y[85]
y[86]
y[87]
y[88]
y[89]
y[90]
y[91]
y[92]
y[93]
y[94]
y[95]
y[96]
y[97]
y[98]
y[99]
y[100]
y[101]
y[102]
y[103]
y[104]
y[105]
y[106]
y[107]
y[108]
y[109]
y[110]
y[111]
y[112]
y[113]
y[114]
y[115]
y[116]
y[117]
y[118]
y[119]
y[120]
y[121]
y[122]
y[123]
y[124]
y[125]
y[126]
y[127]
y[128]
y[129]
y[130]
y[131]
y[132]
y[133]
y[134]
y[135]
y[136]
y[137]
y[138]
y[139]
y[140]
y[141]
y[142]
y[143]
y[144]
y[145]
y[146]
y[147]
y[148]
y[149]
y[150]
y[151]
y[152]
y[153]
y[154]
y[155]
y[156]
y[157]
y[158]
y[159]
y[160]
y[161]
y[162]
y[163]
y[164]
y[165]
y[166]
z[1]
z[2]
z[3]
z[4]
z[5]
z[6]
z[7]
z[8]
z[9]
z[10]
z[11]
z[12]
z[13]
z[14]
z[15]
z[16]
z[17]
z[18]
z[19]
z[20]
z[21]
z[22]
z[23]
z[24]
z[25]
z[26]
z[27]
z[28]
z[29]
z[30]
z[31]
z[32]
z[33]
z[34]
z[35]
z[36]
z[37]
z[38]
z[39]
z[40]
z[41]
z[42]
z[43]
z[44]
z[45]
z[46]
z[47]
z[48]
z[49]
z[50]
z[51]
z[52]
z[53]
z[54]
z[55]
z[56]
z[57]
z[58]
z[59]
z[60]
z[61]
z[62]
z[63]
z[64]
z[65]
z[66]
z[67]
z[68]
z[69]
z[70]
z[71]
z[72]
z[73]
z[74]
z[75]
z[76]
z[77]
z[78]
z[79]
z[80]
z[81]
z[82]
z[83]
z[84]
z[85]
z[86]
z[87]
z[88]
z[89]
z[90]
z[91]
z[92]
z[93]
z[94]
z[95]
z[96]
z[97]
z[98]
z[99]
z[100]
z[101]
z[102]
z[103]
z[104]
z[105]
z[106]
z[107]
z[108]
z[109]
z[110]
z[111]
z[112]
z[113]
z[114]
z[115]
z[116]
z[117]
z[118]
z[119]
z[120]
z[121]
z[122]
z[123]
z[124]
z[125]
z[126]
z[127]
z[128]
z[129]
z[130]
z[131]
z[132]
z[133]
z[134]
z[135]
z[136]
z[137]
z[138]
z[139]
z[140]
z[141]
z[142]
z[143]
z[144]
z[145]
z[146]
z[147]
z[148]
z[149]
z[150]
z[151]
z[152]
z[153]
z[154]
z[155]
z[156]
z[157]
z[158]
z[159]
z[160]
z[161]
z[162]
z[163]
z[164]
z[165]
